72 36 39 42 44 41 38 40 35 37 43 68 
61 81 54 96 
94 93 
82 52 86 57 99 66 
69 98 88 79 73 78 9 87 97 58 77 25 48 
5 45 4 55 
2 6 7 8 46 3 1 70 100 
47 14 12 53 90 
65 83 59 75 16 15 11 10 
92 95 63 33 28 27 29 31 85 76 51 20 24 74 13 17 60 
71 67 62 30 26 34 50 32 89 
64 23 21 18 19 49 22 84 56 91 80 
